Problem:    tp2
Rows:       92
Columns:    90 (90 integer, 90 binary)
Non-zeros:  333
Status:     INTEGER OPTIMAL
Objective:  z = 10935 (MINimum)

   No.   Row name        Activity     Lower bound   Upper bound
------ ------------    ------------- ------------- -------------
     1 z                       10935
     2 constraint[1]
                                   1             1             =
     3 constraint[2]
                                   1             1             =
     4 constraint[3]
                                   1             1             =
     5 constraint[4]
                                   1             1             =
     6 constraint[5]
                                   1             1             =
     7 constraint[6]
                                   1             1             =
     8 constraint[7]
                                   1             1             =
     9 constraint[8]
                                   1             1             =
    10 constraint[9]
                                   1             1             =
    11 constraint2[1,1]
                                   0                          -0
    12 constraint2[1,2]
                                   0                          -0
    13 constraint2[1,3]
                                  -1                          -0
    14 constraint2[1,4]
                                   0                          -0
    15 constraint2[1,5]
                                   0                          -0
    16 constraint2[1,6]
                                   0                          -0
    17 constraint2[1,7]
                                  -1                          -0
    18 constraint2[1,8]
                                  -1                          -0
    19 constraint2[1,9]
                                  -1                          -0
    20 constraint2[2,1]
                                   0                          -0
    21 constraint2[2,2]
                                   0                          -0
    22 constraint2[2,3]
                                   0                          -0
    23 constraint2[2,4]
                                   0                          -0
    24 constraint2[2,5]
                                   0                          -0
    25 constraint2[2,6]
                                   0                          -0
    26 constraint2[2,7]
                                   0                          -0
    27 constraint2[2,8]
                                   0                          -0
    28 constraint2[2,9]
                                   0                          -0
    29 constraint2[3,1]
                                  -1                          -0
    30 constraint2[3,2]
                                  -1                          -0
    31 constraint2[3,3]
                                   0                          -0
    32 constraint2[3,4]
                                  -1                          -0
    33 constraint2[3,5]
                                  -1                          -0
    34 constraint2[3,6]
                                  -1                          -0
    35 constraint2[3,7]
                                  -1                          -0
    36 constraint2[3,8]
                                  -1                          -0
    37 constraint2[3,9]
                                  -1                          -0
    38 constraint2[4,1]
                                   0                          -0
    39 constraint2[4,2]
                                   0                          -0
    40 constraint2[4,3]
                                   0                          -0
    41 constraint2[4,4]
                                   0                          -0
    42 constraint2[4,5]
                                   0                          -0
    43 constraint2[4,6]
                                   0                          -0
    44 constraint2[4,7]
                                   0                          -0
    45 constraint2[4,8]
                                   0                          -0
    46 constraint2[4,9]
                                   0                          -0
    47 constraint2[5,1]
                                   0                          -0
    48 constraint2[5,2]
                                   0                          -0
    49 constraint2[5,3]
                                   0                          -0
    50 constraint2[5,4]
                                   0                          -0
    51 constraint2[5,5]
                                   0                          -0
    52 constraint2[5,6]
                                   0                          -0
    53 constraint2[5,7]
                                   0                          -0
    54 constraint2[5,8]
                                   0                          -0
    55 constraint2[5,9]
                                   0                          -0
    56 constraint2[6,1]
                                   0                          -0
    57 constraint2[6,2]
                                   0                          -0
    58 constraint2[6,3]
                                   0                          -0
    59 constraint2[6,4]
                                   0                          -0
    60 constraint2[6,5]
                                   0                          -0
    61 constraint2[6,6]
                                   0                          -0
    62 constraint2[6,7]
                                   0                          -0
    63 constraint2[6,8]
                                   0                          -0
    64 constraint2[6,9]
                                   0                          -0
    65 constraint2[7,1]
                                   0                          -0
    66 constraint2[7,2]
                                   0                          -0
    67 constraint2[7,3]
                                   0                          -0
    68 constraint2[7,4]
                                   0                          -0
    69 constraint2[7,5]
                                   0                          -0
    70 constraint2[7,6]
                                   0                          -0
    71 constraint2[7,7]
                                   0                          -0
    72 constraint2[7,8]
                                   0                          -0
    73 constraint2[7,9]
                                   0                          -0
    74 constraint2[8,1]
                                   0                          -0
    75 constraint2[8,2]
                                   0                          -0
    76 constraint2[8,3]
                                   0                          -0
    77 constraint2[8,4]
                                   0                          -0
    78 constraint2[8,5]
                                   0                          -0
    79 constraint2[8,6]
                                   0                          -0
    80 constraint2[8,7]
                                   0                          -0
    81 constraint2[8,8]
                                   0                          -0
    82 constraint2[8,9]
                                   0                          -0
    83 constraint2[9,1]
                                  -1                          -0
    84 constraint2[9,2]
                                  -1                          -0
    85 constraint2[9,3]
                                  -1                          -0
    86 constraint2[9,4]
                                  -1                          -0
    87 constraint2[9,5]
                                  -1                          -0
    88 constraint2[9,6]
                                  -1                          -0
    89 constraint2[9,7]
                                   0                          -0
    90 constraint2[9,8]
                                   0                          -0
    91 constraint2[9,9]
                                   0                          -0
    92 constraint3                 3             3             =

   No. Column name       Activity     Lower bound   Upper bound
------ ------------    ------------- ------------- -------------
     1 Y[1]         *              1             0             1
     2 Y[2]         *              0             0             1
     3 Y[3]         *              1             0             1
     4 Y[4]         *              0             0             1
     5 Y[5]         *              0             0             1
     6 Y[6]         *              0             0             1
     7 Y[7]         *              0             0             1
     8 Y[8]         *              0             0             1
     9 Y[9]         *              1             0             1
    10 X[1,1]       *              1             0             1
    11 X[1,2]       *              1             0             1
    12 X[1,3]       *              0             0             1
    13 X[1,4]       *              1             0             1
    14 X[1,5]       *              1             0             1
    15 X[1,6]       *              1             0             1
    16 X[1,7]       *              0             0             1
    17 X[1,8]       *              0             0             1
    18 X[1,9]       *              0             0             1
    19 X[2,1]       *              0             0             1
    20 X[2,2]       *              0             0             1
    21 X[2,3]       *              0             0             1
    22 X[2,4]       *              0             0             1
    23 X[2,5]       *              0             0             1
    24 X[2,6]       *              0             0             1
    25 X[2,7]       *              0             0             1
    26 X[2,8]       *              0             0             1
    27 X[2,9]       *              0             0             1
    28 X[3,1]       *              0             0             1
    29 X[3,2]       *              0             0             1
    30 X[3,3]       *              1             0             1
    31 X[3,4]       *              0             0             1
    32 X[3,5]       *              0             0             1
    33 X[3,6]       *              0             0             1
    34 X[3,7]       *              0             0             1
    35 X[3,8]       *              0             0             1
    36 X[3,9]       *              0             0             1
    37 X[4,1]       *              0             0             1
    38 X[4,2]       *              0             0             1
    39 X[4,3]       *              0             0             1
    40 X[4,4]       *              0             0             1
    41 X[4,5]       *              0             0             1
    42 X[4,6]       *              0             0             1
    43 X[4,7]       *              0             0             1
    44 X[4,8]       *              0             0             1
    45 X[4,9]       *              0             0             1
    46 X[5,1]       *              0             0             1
    47 X[5,2]       *              0             0             1
    48 X[5,3]       *              0             0             1
    49 X[5,4]       *              0             0             1
    50 X[5,5]       *              0             0             1
    51 X[5,6]       *              0             0             1
    52 X[5,7]       *              0             0             1
    53 X[5,8]       *              0             0             1
    54 X[5,9]       *              0             0             1
    55 X[6,1]       *              0             0             1
    56 X[6,2]       *              0             0             1
    57 X[6,3]       *              0             0             1
    58 X[6,4]       *              0             0             1
    59 X[6,5]       *              0             0             1
    60 X[6,6]       *              0             0             1
    61 X[6,7]       *              0             0             1
    62 X[6,8]       *              0             0             1
    63 X[6,9]       *              0             0             1
    64 X[7,1]       *              0             0             1
    65 X[7,2]       *              0             0             1
    66 X[7,3]       *              0             0             1
    67 X[7,4]       *              0             0             1
    68 X[7,5]       *              0             0             1
    69 X[7,6]       *              0             0             1
    70 X[7,7]       *              0             0             1
    71 X[7,8]       *              0             0             1
    72 X[7,9]       *              0             0             1
    73 X[8,1]       *              0             0             1
    74 X[8,2]       *              0             0             1
    75 X[8,3]       *              0             0             1
    76 X[8,4]       *              0             0             1
    77 X[8,5]       *              0             0             1
    78 X[8,6]       *              0             0             1
    79 X[8,7]       *              0             0             1
    80 X[8,8]       *              0             0             1
    81 X[8,9]       *              0             0             1
    82 X[9,1]       *              0             0             1
    83 X[9,2]       *              0             0             1
    84 X[9,3]       *              0             0             1
    85 X[9,4]       *              0             0             1
    86 X[9,5]       *              0             0             1
    87 X[9,6]       *              0             0             1
    88 X[9,7]       *              1             0             1
    89 X[9,8]       *              1             0             1
    90 X[9,9]       *              1             0             1

Integer feasibility conditions:

INT.PE: max.abs.err. = 0.00e+00 on row 0
        max.rel.err. = 0.00e+00 on row 0
        High quality

INT.PB: max.abs.err. = 0.00e+00 on row 0
        max.rel.err. = 0.00e+00 on row 0
        High quality

End of output
